c Result of efficient AIG-to-CNF conversion using package CNF
p cnf 154 518
-2 3 17 0
-2 -13 17 0
2 -17 0
2 -3 13 0
3 -4 5 11 12 0
-3 -12 0
-3 4 0
-3 -11 0
-3 -5 0
4 -122 152 153 0
4 -123 152 153 0
-4 -153 0
-4 -152 0
-4 122 123 0
-5 128 129 6 10 0
5 -128 0
5 -10 0
5 -6 0
5 -129 0
-6 140 7 0
6 -140 0
6 -7 0
-7 8 9 0
7 -8 0
7 -9 0
-8 133 134 135 136 0
8 -136 0
8 -135 0
8 -133 0
8 -134 0
-9 137 138 139 0
9 -137 0
9 -139 0
9 -138 0
-10 130 131 132 0
10 -130 0
10 -132 0
10 -131 0
-11 123 124 125 126 0
11 -126 0
11 -125 0
11 -123 0
11 -124 0
-12 150 151 0
12 -150 0
12 -151 0
-13 127 147 14 15 0
13 -127 0
13 -15 0
13 -14 0
13 -147 0
-14 141 142 145 146 0
14 -146 0
14 -145 0
14 -141 0
14 -142 0
-15 143 144 16 0
15 -16 0
15 -144 0
15 -143 0
-16 148 149 0
16 -148 0
16 -149 0
17 11 -105 0
17 11 18 -19 0
-17 -11 0
-17 -18 105 0
-17 19 105 0
-18 127 128 129 0
18 -127 0
18 -129 0
18 -128 0
-19 -22 36 0
-19 23 36 0
-19 -20 36 0
19 -36 0
19 20 22 -23 0
-20 140 147 9 21 0
20 -140 0
20 -21 0
20 -9 0
20 -147 0
-21 14 15 0
21 -14 0
21 -15 0
-22 8 10 0
22 -8 0
22 -10 0
-23 25 26 0
-23 24 26 0
23 -26 0
23 -24 -25 0
24 -152 12 0
-24 152 0
-24 -12 0
25 -147 153 0
25 -145 -153 0
-25 147 153 0
-25 145 -153 0
-26 -150 27 0
-26 150 151 0
-26 150 33 0
26 -150 -27 0
26 150 -151 -33 0
27 151 -28 0
27 -151 -31 0
-27 -151 31 0
-27 151 28 0
28 152 -29 0
28 -152 -30 0
-28 -152 30 0
-28 152 29 0
29 -135 153 0
29 -133 -153 0
-29 135 153 0
-29 133 -153 0
30 -131 153 0
30 -129 -153 0
-30 131 153 0
-30 129 -153 0
31 152 -32 0
31 -123 -152 153 0
-31 152 32 0
-31 -152 -153 0
-31 123 -152 0
32 -127 153 0
32 -125 -153 0
-32 127 153 0
-32 125 -153 0
33 152 -34 0
33 -152 -35 0
-33 -152 35 0
-33 152 34 0
34 -143 153 0
34 -141 -153 0
-34 143 153 0
-34 141 -153 0
35 -139 153 0
35 -137 -153 0
-35 139 153 0
-35 137 -153 0
36 10 -94 0
36 10 -37 90 0
-36 -10 0
-36 37 94 0
-36 -90 94 0
-37 43 54 0
-37 -150 38 54 0
37 -54 0
37 150 -43 0
37 -38 -43 0
-38 -151 4 0
-38 151 39 0
38 -151 -4 0
38 151 -39 0
-39 -152 40 0
-39 152 30 42 0
39 152 -30 0
39 -152 -40 0
39 152 -42 0
-40 127 153 41 0
-40 125 -153 41 0
40 -41 0
40 -127 153 0
40 -125 -153 0
41 -126 153 0
41 -124 -153 0
-41 126 153 0
-41 124 -153 0
42 -130 153 0
42 -128 -153 0
-42 130 153 0
-42 128 -153 0
-43 151 44 46 0
-43 -151 45 46 0
43 -46 0
43 -151 -45 0
43 151 -44 0
-44 -152 34 0
-44 152 25 0
44 152 -25 0
44 -152 -34 0
45 -152 -29 0
45 152 -35 0
-45 152 35 0
-45 -152 29 0
46 -48 -51 0
46 47 -51 0
-46 51 0
-46 -47 48 0
47 150 -151 0
-47 -150 0
-47 151 0
48 152 -49 0
48 -152 -50 0
-48 -152 50 0
-48 152 49 0
49 -138 153 0
49 -136 -153 0
-49 138 153 0
-49 136 -153 0
50 -134 153 0
50 -132 -153 0
-50 134 153 0
-50 132 -153 0
-51 152 12 52 0
-51 -152 12 53 0
51 -12 0
51 -152 -53 0
51 152 -52 0
52 -146 153 0
52 -144 -153 0
-52 146 153 0
-52 144 -153 0
53 -142 153 0
53 -140 -153 0
-53 142 153 0
-53 140 -153 0
-54 55 83 0
-54 -150 55 82 0
54 -55 0
54 -82 -83 0
54 150 -83 0
-55 150 66 0
-55 56 61 66 0
55 -66 0
55 -150 -61 0
55 -150 -56 0
56 151 -57 0
56 -151 -60 0
-56 -151 60 0
-56 151 57 0
57 152 -58 0
57 -152 -59 0
-57 -152 59 0
-57 152 58 0
58 -132 153 0
58 -130 -153 0
-58 132 153 0
-58 130 -153 0
59 -128 153 0
59 -126 -153 0
-59 128 153 0
-59 126 -153 0
60 -122 152 -153 0
60 -124 152 153 0
-60 -152 0
-60 122 -153 0
-60 124 153 0
61 151 -62 0
61 -151 -65 0
-61 -151 65 0
-61 151 62 0
62 152 -63 0
62 -152 -64 0
-62 -152 64 0
-62 152 63 0
63 -133 153 0
63 -131 -153 0
-63 133 153 0
-63 131 -153 0
64 -129 153 0
64 -127 -153 0
-64 129 153 0
-64 127 -153 0
65 -123 152 -153 0
65 -125 152 153 0
-65 -152 0
-65 123 -153 0
-65 125 153 0
66 150 -70 0
66 151 -67 -70 0
-66 70 0
-66 -150 67 0
-66 -150 -151 0
-67 -152 68 0
-67 152 59 64 0
67 152 -59 0
67 -152 -68 0
67 152 -64 0
-68 125 153 69 0
-68 123 -153 69 0
68 -69 0
68 -125 153 0
68 -123 -153 0
69 -124 153 0
69 -122 -153 0
-69 124 153 0
-69 122 -153 0
-70 -151 71 80 0
-70 151 71 77 0
70 -71 0
70 -151 -80 0
70 151 -77 0
71 -150 0
71 -151 -75 0
71 151 -72 0
-71 150 -151 75 0
-71 150 151 72 0
72 152 -73 0
72 -152 -74 0
-72 -152 74 0
-72 152 73 0
73 -144 153 0
73 -142 -153 0
-73 144 153 0
-73 142 -153 0
74 -140 153 0
74 -138 -153 0
-74 140 153 0
-74 138 -153 0
75 -152 -58 0
75 152 -76 0
-75 152 76 0
-75 -152 58 0
76 -136 153 0
76 -134 -153 0
-76 136 153 0
-76 134 -153 0
77 152 -78 0
77 -152 -79 0
-77 -152 79 0
-77 152 78 0
78 -145 153 0
78 -143 -153 0
-78 145 153 0
-78 143 -153 0
79 -141 153 0
79 -139 -153 0
-79 141 153 0
-79 139 -153 0
80 -152 -63 0
80 152 -81 0
-80 152 81 0
-80 -152 63 0
81 -137 153 0
81 -135 -153 0
-81 137 153 0
-81 135 -153 0
82 151 152 -68 0
-82 -151 0
-82 68 0
-82 -152 0
-83 151 84 88 0
-83 -151 87 88 0
83 -88 0
83 151 -84 0
83 -151 -87 0
84 152 -86 0
84 -152 -85 0
84 -150 152 0
-84 -152 85 0
-84 150 152 86 0
-85 145 153 73 0
-85 143 -153 73 0
85 -73 0
85 -145 153 0
85 -143 -153 0
-86 153 16 0
-86 146 147 -153 0
86 153 -16 0
86 -146 -153 0
86 -147 -153 0
-87 57 62 0
87 -57 0
87 -62 0
-88 152 79 89 0
-88 -152 81 89 0
88 -89 0
88 152 -79 0
88 -152 -81 0
89 152 -74 0
89 -152 -76 0
-89 -152 76 0
-89 152 74 0
-90 6 91 92 93 0
90 -93 0
90 -6 0
90 -92 0
90 -91 0
-91 141 142 0
91 -141 0
91 -142 0
-92 143 144 145 0
92 -143 0
92 -145 0
92 -144 0
-93 146 147 16 0
93 -16 0
93 -147 0
93 -146 0
-94 -90 0
-94 -95 97 0
-94 96 97 0
94 90 -97 0
94 90 95 -96 0
95 -150 4 0
95 -151 39 0
95 -150 -151 0
-95 151 -4 0
-95 150 -39 0
-95 150 151 0
-96 12 45 48 0
96 -12 0
96 -48 0
96 -45 0
-97 -150 98 103 0
-97 150 98 99 0
97 -98 0
97 -150 -103 0
97 150 -99 0
98 -146 153 -24 0
98 -144 -153 -24 0
-98 24 0
-98 146 153 0
-98 144 -153 0
-99 151 33 102 0
-99 -151 100 102 0
99 -102 0
99 151 -33 0
99 -151 -100 0
-100 28 101 0
100 -28 0
100 -101 0
101 -152 -42 0
101 152 -50 0
-101 152 50 0
-101 -152 42 0
102 -152 -49 0
102 152 -53 0
-102 152 53 0
-102 -152 49 0
-103 -151 104 0
-103 31 101 104 0
103 -104 0
103 151 -31 0
103 151 -101 0
104 152 -41 0
104 -122 -152 153 0
-104 152 41 0
-104 -152 -153 0
-104 122 -152 0
-105 107 114 119 0
-105 -106 107 114 0
105 -114 0
105 -107 0
105 106 -119 0
-106 140 141 142 0
106 -140 0
106 -142 0
106 -141 0
107 7 106 108 -110 0
-107 -108 0
-107 110 0
-107 -7 0
-107 -106 0
-108 10 18 109 0
108 -10 0
108 -18 0
108 -109 0
-109 150 92 93 0
109 -93 0
109 -92 0
109 -150 0
-110 151 38 111 0
-110 38 104 111 0
110 -111 0
110 -38 0
110 -151 -104 0
-111 27 56 112 113 0
111 -27 0
111 -113 0
111 -112 0
111 -56 0
-112 61 101 0
-112 -151 61 0
112 -61 0
112 151 -101 0
113 151 -80 0
113 -151 -67 0
113 151 -75 0
-113 -151 67 0
-113 151 75 80 0
114 115 -117 0
114 -150 -113 115 0
-114 -115 0
-114 150 117 0
-114 113 117 0
-115 20 116 0
115 -20 0
115 -116 0
-116 18 22 0
116 -18 0
116 -22 0
-117 47 118 0
-117 72 77 118 0
117 -118 0
117 -47 -77 0
117 -47 -72 0
118 -24 -86 0
-118 24 0
-118 86 0
119 -67 121 0
119 -120 121 0
119 -65 121 0
-119 -121 0
-119 65 67 120 0
-120 31 60 104 0
120 -31 0
120 -104 0
120 -60 0
-121 151 9 109 116 0
121 -151 0
121 -116 0
121 -109 0
121 -9 0
-154 0
2 0

